/* Objective function */
min: +750 C1 +900 C2 +450 C3 +13000 C4 +120000 C5 +5000 C6 +900 C7 +1200 C8 +750 C9;

/* Constraints */
0 C1 <= 0;
0 C1 <= 0;
0 C1 <= 0;
0 C1 <= 0;
0 C1 <= 0;
0 C1 <= 0;
0 C1 <= 0;
0 C1 <= 0;
0 C1 <= 0;
+C1 +20 C4 +C7 +0.00133333333333 C10 +0.00133333333333 C11 >= 420;
+C1 +15 C4 +C8 +0.00133333333333 C10 +0.00133333333333 C11 >= 360;
+C1 +12 C4 +C9 +0.00133333333333 C10 +0.00133333333333 C11 >= 300;
+C2 +20 C5 +C7 -0.00111111111111 C10 >= 420;
+C2 +15 C5 +C8 -0.00111111111111 C10 >= 360;
+C2 +12 C5 +C9 -0.00111111111111 C10 >= 300;
+C3 +20 C6 +C7 -0.00222222222222 C11 >= 420;
+C3 +15 C6 +C8 -0.00222222222222 C11 = 360;
+C3 +12 C6 +C9 -0.00222222222222 C11 = 300;
